c Sudoku solution
p cnf 729 0
187 0
226 0
238 0
272 0
325 0
337 0
349 0
362 0
393 0
418 0
451 0
548 0
581 0
634 0
692 0
727 0
742 0
552 0
764 0
444 0
828 0
833 0
859 0
875 0
915 0
755 0
941 0
953 0
968 0
977 0
989 0
882 0
112 0
523 0
213 0
299 0
261 0
994 0
814 0
922 0
936 0
891 0
311 0
139 0
124 0
621 0
719 0
731 0
429 0
432 0
535 0
171 0
574 0
679 0
688 0
569 0
597 0
467 0
656 0
516 0
617 0
158 0
378 0
354 0
257 0
245 0
195 0
284 0
386 0
643 0
665 0
146 0
163 0
847 0
866 0
798 0
485 0
473 0
496 0
776 0
783 0
